GLPSOL--GLPK LP/MIP Solver 5.0
Parameter(s) specified in the command line:
 --lp ../modeles/20_99.lp --log 20_99.log
Reading problem data from '../modeles/20_99.lp'...
2061 rows, 4000 columns, 13960 non-zeros
1980 integer variables, all of which are binary
6087 lines were read
GLPK Integer Optimizer 5.0
2061 rows, 4000 columns, 13960 non-zeros
1980 integer variables, all of which are binary
Preprocessing...
1960 constraint coefficient(s) were reduced
2061 rows, 3980 columns, 13940 non-zeros
1980 integer variables, all of which are binary
Scaling...
 A: min|aij| =  4.081e-04  max|aij| =  4.000e+00  ratio =  9.801e+03
GM: min|aij| =  1.005e-01  max|aij| =  9.950e+00  ratio =  9.900e+01
EQ: min|aij| =  1.010e-02  max|aij| =  1.000e+00  ratio =  9.900e+01
2N: min|aij| =  7.812e-03  max|aij| =  1.742e+00  ratio =  2.230e+02
Constructing initial basis...
Size of triangular part is 2061
Solving LP relaxation...
GLPK Simplex Optimizer 5.0
2061 rows, 3980 columns, 13940 non-zeros
      0: obj =   4.000000000e+01 inf =   9.950e+01 (41)
    179: obj =   4.959693878e-01 inf =   0.000e+00 (0)
*   687: obj =  -4.469907407e+00 inf =   3.336e-14 (0) 1
OPTIMAL LP SOLUTION FOUND
Integer optimization begins...
Long-step dual simplex will be used
+   687: mip =     not found yet >=              -inf        (1; 0)
+   689: >>>>>  -4.469907407e+00 >=  -4.469907407e+00   0.0% (3; 0)
+   689: mip =  -4.469907407e+00 >=     tree is empty   0.0% (0; 5)
INTEGER OPTIMAL SOLUTION FOUND
Time used:   0.1 secs
Memory used: 5.9 Mb (6147558 bytes)
